NAME : LPS-n10-m110
COMMENT : (Lartu-Peter-Santi Plot, instance 2910 out of 39200. 10 customers.)
TYPE : CVRP
DIMENSION : 10
EDGE_WEIGHT_TYPE : EUC_2D
CAPACITY : 139
NODE_COORD_SECTION
 1 80 1
 2 79 71
 3 5 73
 4 95 6
 5 35 21
 6 36 57
 7 15 59
 8 86 93
 9 57 16
 10 76 89
DEMAND_SECTION
1 0
2 5
3 74
4 96
5 1
6 132
7 45
8 33
9 1
10 60
DEPOT_SECTION
 1
 -1
EOF
